643
1681
1801
22085
1815
15473
779
634
9669
795
3311
340
5095
522
457
5001
0
1547
15318
2756
3559
924
1269
16271
439
273
3787
113
3042
1294
2808
9659
5610
701
1689
5456
36
231
2926
207
0
420
15352
5898
6952
558
1850
714
3421
1951
3393
1736
162
21
9152
931
21678
925
104
10058
331
9508
1988
9762
11220
555
82
55
529
274
888
435
1562
883
199
21438
415
28755
516
265
1435
308
5364
6074
1866
5864
1565
3285
941
371
9248
3537
9899
15418
502
1782
6296
422
3243
6306
